3218548
0,81,44,24,62,78,19,82,89,23,2,43,42,50,1,94,29,3,99,21,14,22,79,91,73,70,72,98,64,38,46,68,69,85,26,90,10,103,11,27,67,39,59,41,105,77,32,107,86,61,54,12,55,60,102,93,28,51,100,97,108,76,65,101,88,96,25,40,71,56,74,13,7,35,87,95,49,17,18,6,75,92,20,104,47,16,63,15,33,34,4,8,36,37,48,30,9,57,53,52,66,5,31,58,45,80,83,84,106
